nNurses = 188;
nHours = 38;
minHours = 8;
maxHours = 14;
maxConsec = 11;
maxPresence = 28;
demand = [29, 27, 25, 29, 26, 29, 24, 23, 18, 15, 16, 21, 20, 22, 18, 22, 23, 22, 26, 31, 33, 38, 34, 32, 30, 26, 27, 31, 35, 37, 38, 41, 36, 38, 36, 36, 39, 39];
